\* Sport_Choice_Problem *\
Maximize
Total_cost: 1000 _10 + 2000 _11 + 5000 _12 + 100 _3 + 150 _4 + 200 _5 + 200 _6
 + 350 _7 + 400 _8 + 800 _9
Subject To
CostMaximum: 1000 _10 + 2000 _11 + 5000 _12 + 100 _3 + 150 _4 + 200 _5
 + 200 _6 + 350 _7 + 400 _8 + 800 _9 <= 625
CostMinimum: 1000 _10 + 2000 _11 + 5000 _12 + 100 _3 + 150 _4 + 200 _5
 + 200 _6 + 350 _7 + 400 _8 + 800 _9 >= 1
Max_sport: _10 + _11 + _12 + _3 + _4 + _5 + _6 + _7 + _8 + _9 <= 7
Bounds
0 <= _10 <= 12
0 <= _11 <= 12
0 <= _12 <= 12
0 <= _3 <= 12
0 <= _4 <= 12
0 <= _5 <= 12
0 <= _6 <= 12
0 <= _7 <= 12
0 <= _8 <= 12
0 <= _9 <= 12
Generals
_10
_11
_12
_3
_4
_5
_6
_7
_8
_9
End
